36
100
79	2
77	1
76	1
75	1
72	2
70	3
67	1
66	1
63	1
60	2
58	3
55	1
54	1
53	1
50	2
49	1
44	1
42	2
41	2
37	1
35	1
34	1
33	1
30	1
27	1
24	1
20	1
19	1
18	1
17	2
15	1
14	2
13	2
12	1
11	2
10	1
